presolving:
(round 1, fast)       405 del vars, 30414 del conss, 0 add conss, 0 chg bounds, 0 chg sides, 0 chg coeffs, 0 upgd conss, 0 impls, 202 clqs
(round 2, fast)       1577 del vars, 31151 del conss, 0 add conss, 0 chg bounds, 0 chg sides, 0 chg coeffs, 0 upgd conss, 0 impls, 202 clqs
(round 3, fast)       28887 del vars, 31212 del conss, 0 add conss, 0 chg bounds, 0 chg sides, 0 chg coeffs, 0 upgd conss, 0 impls, 202 clqs
   (0.3s) running MILP presolver
   (0.3s) MILP presolver found nothing
(round 4, exhaustive) 28887 del vars, 31212 del conss, 0 add conss, 0 chg bounds, 0 chg sides, 0 chg coeffs, 799 upgd conss, 0 impls, 202 clqs
   (0.3s) probing: 51/799 (6.4%) - 0 fixings, 0 aggregations, 0 implications, 0 bound changes
   (0.3s) probing aborted: 50/50 successive totally useless probings
   (0.3s) symmetry computation started: requiring (bin +, int -, cont +), (fixed: bin -, int +, cont -)
   (0.3s) no symmetry present
presolving (5 rounds: 5 fast, 2 medium, 2 exhaustive):
 28887 deleted vars, 31212 deleted constraints, 0 added constraints, 0 tightened bounds, 0 added holes, 0 changed sides, 0 changed coefficients
 0 implications, 202 cliques
presolved problem has 799 variables (799 bin, 0 int, 0 impl, 0 cont) and 799 constraints
    202 constraints of type <setppc>
    597 constraints of type <logicor>
Presolving Time: 0.17

 time | node  | left  |LP iter|LP it/n|mem/heur|mdpt |vars |cons |rows |cuts |sepa|confs|strbr|  dualbound   | primalbound  |  gap   | compl. 
t 0.3s|     1 |     0 |     0 |     - | trivial|   0 | 799 | 799 |   0 |   0 |  0 |   0 |   0 | 7.790979e+05 | 6.021765e+05 |  29.38%| unknown
p 0.3s|     1 |     0 |   197 |     - |  clique|   0 | 799 | 799 | 799 |   0 |  0 |   0 |   0 | 7.790979e+05 | 7.032138e+05 |  10.79%| unknown
i 0.3s|     1 |     0 |   560 |     - |  oneopt|   0 | 799 | 799 | 799 |   0 |  0 |   0 |   0 | 7.790979e+05 | 7.036050e+05 |  10.73%| unknown
  0.4s|     1 |     0 |  2168 |     - |   109M |   0 | 799 | 799 | 799 |   0 |  0 |   0 |   0 | 7.260520e+05 | 7.036050e+05 |   3.19%| unknown
  0.5s|     1 |     0 |  2449 |     - |   112M |   0 | 799 | 799 | 811 |  12 |  1 |   0 |   0 | 7.240181e+05 | 7.036050e+05 |   2.90%| unknown
  0.7s|     1 |     0 |  2777 |     - |   116M |   0 | 799 | 799 | 822 |  23 |  2 |   0 |   0 | 7.226564e+05 | 7.036050e+05 |   2.71%| unknown
  0.8s|     1 |     0 |  3086 |     - |   119M |   0 | 799 | 799 | 827 |  28 |  3 |   0 |   0 | 7.221038e+05 | 7.036050e+05 |   2.63%| unknown
  1.0s|     1 |     0 |  3468 |     - |   122M |   0 | 799 | 799 | 834 |  35 |  4 |   0 |   0 | 7.213318e+05 | 7.036050e+05 |   2.52%| unknown
  1.3s|     1 |     0 |  3982 |     - |   126M |   0 | 799 | 799 | 844 |  45 |  5 |   0 |   0 | 7.208440e+05 | 7.036050e+05 |   2.45%| unknown
  1.5s|     1 |     0 |  4369 |     - |   131M |   0 | 799 | 800 | 851 |  52 |  6 |   1 |   0 | 7.205797e+05 | 7.036050e+05 |   2.41%| unknown
  1.8s|     1 |     0 |  4757 |     - |   134M |   0 | 799 | 801 | 863 |  64 |  7 |   2 |   0 | 7.203632e+05 | 7.036050e+05 |   2.38%| unknown
  2.1s|     1 |     0 |  5151 |     - |   137M |   0 | 799 | 801 | 872 |  73 |  8 |   2 |   0 | 7.201158e+05 | 7.036050e+05 |   2.35%| unknown
  2.4s|     1 |     0 |  5626 |     - |   140M |   0 | 799 | 801 | 877 |  78 |  9 |   2 |   0 | 7.198412e+05 | 7.036050e+05 |   2.31%| unknown
  2.8s|     1 |     0 |  6013 |     - |   142M |   0 | 799 | 802 | 887 |  88 | 10 |   3 |   0 | 7.194131e+05 | 7.036050e+05 |   2.25%| unknown
  2.9s|     1 |     0 |  6155 |     - |   142M |   0 | 799 | 802 | 892 |  93 | 11 |   3 |   0 | 7.192478e+05 | 7.036050e+05 |   2.22%| unknown
 time | node  | left  |LP iter|LP it/n|mem/heur|mdpt |vars |cons |rows |cuts |sepa|confs|strbr|  dualbound   | primalbound  |  gap   | compl. 
  3.1s|     1 |     0 |  6304 |     - |   142M |   0 | 799 | 803 | 896 |  97 | 12 |   4 |   0 | 7.191712e+05 | 7.036050e+05 |   2.21%| unknown
  3.3s|     1 |     0 |  6388 |     - |   142M |   0 | 799 | 804 | 899 | 100 | 13 |   5 |   0 | 7.191157e+05 | 7.036050e+05 |   2.20%| unknown
  3.5s|     1 |     0 |  6675 |     - |   142M |   0 | 799 | 804 | 901 | 103 | 14 |   5 |   0 | 7.189643e+05 | 7.036050e+05 |   2.18%| unknown
  3.8s|     1 |     0 |  6942 |     - |   143M |   0 | 799 | 804 | 908 | 110 | 15 |   5 |   0 | 7.187591e+05 | 7.036050e+05 |   2.15%| unknown
  4.0s|     1 |     0 |  7092 |     - |   143M |   0 | 799 | 804 | 913 | 115 | 16 |   5 |   0 | 7.186918e+05 | 7.036050e+05 |   2.14%| unknown
  4.2s|     1 |     0 |  7304 |     - |   143M |   0 | 799 | 805 | 917 | 119 | 17 |   6 |   0 | 7.185472e+05 | 7.036050e+05 |   2.12%| unknown
  4.4s|     1 |     0 |  7425 |     - |   143M |   0 | 799 | 806 | 922 | 124 | 18 |   7 |   0 | 7.185194e+05 | 7.036050e+05 |   2.12%| unknown
  4.6s|     1 |     0 |  7700 |     - |   143M |   0 | 799 | 807 | 926 | 128 | 19 |   8 |   0 | 7.184140e+05 | 7.036050e+05 |   2.10%| unknown
  4.8s|     1 |     0 |  7763 |     - |   143M |   0 | 799 | 808 | 911 | 131 | 20 |   9 |   0 | 7.183841e+05 | 7.036050e+05 |   2.10%| unknown
d 5.2s|     1 |     0 | 10027 |     - |farkasdi|   0 | 799 | 809 | 911 |   0 | 22 |  10 |   0 | 7.183841e+05 | 7.036263e+05 |   2.10%| unknown
o 5.2s|     1 |     0 | 10657 |     - |feaspump|   0 | 799 | 809 | 911 | 131 | 22 |  10 |   0 | 7.183841e+05 | 7.135288e+05 |   0.68%| unknown
L 5.2s|     1 |     0 | 10730 |     - |    alns|   0 | 799 | 812 | 911 | 131 | 22 |  13 |   0 | 7.183841e+05 | 7.141895e+05 |   0.59%| unknown
  5.2s|     1 |     0 | 10730 |     - |   144M |   0 | 799 | 812 | 911 | 131 | 22 |  13 |   0 | 7.183841e+05 | 7.141895e+05 |   0.59%| unknown
  5.4s|     1 |     0 | 10737 |     - |   144M |   0 | 799 | 813 | 913 | 133 | 23 |  14 |   0 | 7.183837e+05 | 7.141895e+05 |   0.59%| unknown
  5.4s|     1 |     0 | 10756 |     - |   144M |   0 | 799 | 813 | 914 | 134 | 24 |  14 |   0 | 7.183833e+05 | 7.141895e+05 |   0.59%| unknown
 time | node  | left  |LP iter|LP it/n|mem/heur|mdpt |vars |cons |rows |cuts |sepa|confs|strbr|  dualbound   | primalbound  |  gap   | compl. 
  6.7s|     1 |     2 | 10756 |     - |   144M |   0 | 799 | 813 | 914 | 134 | 24 |  14 |  19 | 7.181048e+05 | 7.141895e+05 |   0.55%| unknown
 20.9s|   100 |     7 | 27857 | 208.4 |   150M |  11 | 799 |1009 | 910 | 197 |  1 | 211 | 970 | 7.163662e+05 | 7.141895e+05 |   0.30%|  72.44%
*22.1s|   115 |     6 | 30656 | 205.5 |    LP  |  11 | 799 |1013 | 935 | 251 |  3 | 215 | 985 | 7.163557e+05 | 7.144323e+05 |   0.27%|  73.13%
*22.3s|   119 |     3 | 30834 | 200.0 |    LP  |  11 | 799 |1013 | 936 | 254 |  3 | 215 | 985 | 7.163557e+05 | 7.146589e+05 |   0.24%|  77.22%
r22.4s|   123 |     3 | 31244 | 196.8 |shifting|  11 | 799 |1013 | 936 | 258 |  2 | 215 | 985 | 7.163557e+05 | 7.148578e+05 |   0.21%|  80.16%
r22.4s|   123 |     5 | 31244 | 196.8 |ziroundi|  11 | 799 |1013 | 936 | 258 |  4 | 215 | 985 | 7.163557e+05 | 7.149846e+05 |   0.19%|  80.16%
*22.5s|   137 |     3 | 32337 | 184.6 |    LP  |  11 | 799 |1013 | 928 | 258 |  1 | 215 | 985 | 7.154480e+05 | 7.150467e+05 |   0.06%|  94.23%
r22.6s|   143 |     1 | 32598 | 178.7 |shifting|  11 | 799 |1017 | 928 | 258 |  0 | 219 | 987 | 7.153152e+05 | 7.150758e+05 |   0.03%|  96.53%
r22.6s|   143 |     3 | 32598 | 178.7 |ziroundi|  11 | 799 |1017 | 928 | 258 |  1 | 219 | 987 | 7.153152e+05 | 7.152026e+05 |   0.02%|  96.53%

SCIP Status        : problem is solved [optimal solution found]
Solving Time (sec) : 22.60
Solving Nodes      : 146
Primal Bound       : +7.15202620394460e+05 (84 solutions)
Dual Bound         : +7.15202620394460e+05
Gap                : 0.00 %
Solve Status: optimal
Solve Time: 22.61 seconds
